; benchmark generated from python API
(set-info :status unknown)
(declare-fun x_month () Int)
(declare-fun x_year () Int)
(declare-fun x_day () Int)
(declare-fun y_month () Int)
(declare-fun y_year () Int)
(declare-fun y_day () Int)
(assert
 (let (($x690 (= x_month 6)))
 (let ((?x541 (ite (or (= x_month 4) $x690 (= x_month 9) (= x_month 11)) 30 31)))
 (let (($x995 (= (mod x_year 400) 0)))
 (let (($x416 (= (mod x_year 4) 0)))
 (let ((?x609 (ite (or (and $x416 (and (distinct (mod x_year 100) 0) true)) $x995) 29 28)))
 (let (($x1054 (= x_month 2)))
 (let (($x1073 (<= x_day (ite $x1054 ?x609 ?x541))))
 (let (($x847 (>= x_day 1)))
 (let (($x884 (<= x_month 2)))
 (let (($x713 (>= x_month 1)))
 (let (($x903 (= x_year 2100)))
 (let (($x1053 (<= x_month 12)))
 (let (($x952 (<= x_year 2099)))
 (let (($x1012 (>= x_year 1901)))
 (or (and (= x_year 1900) (>= x_month 3) $x1053 $x847 $x1073) (and $x1012 $x952 $x713 $x1053 $x847 $x1073) (and $x903 $x713 $x884 $x847 $x1073)))))))))))))))))
(assert
 (let (($x489 (= y_month 6)))
 (let ((?x1159 (ite (or (= y_month 4) $x489 (= y_month 9) (= y_month 11)) 30 31)))
 (let (($x631 (= (mod y_year 400) 0)))
 (let (($x456 (= (mod y_year 4) 0)))
 (let ((?x765 (ite (or (and $x456 (and (distinct (mod y_year 100) 0) true)) $x631) 29 28)))
 (let (($x1122 (= y_month 2)))
 (let (($x561 (<= y_day (ite $x1122 ?x765 ?x1159))))
 (let (($x704 (>= y_day 1)))
 (let (($x676 (<= y_month 2)))
 (let (($x875 (>= y_month 1)))
 (let (($x564 (= y_year 2100)))
 (let (($x1033 (<= y_month 12)))
 (let (($x827 (<= y_year 2099)))
 (let (($x638 (>= y_year 1901)))
 (or (and (= y_year 1900) (>= y_month 3) $x1033 $x704 $x561) (and $x638 $x827 $x875 $x1033 $x704 $x561) (and $x564 $x875 $x676 $x704 $x561)))))))))))))))))
(assert
 (let (($x703 (= x_year 2023)))
 (let (($x889 (and $x703 (or (> x_month 6) (and (= x_month 6) (>= x_day 1))))))
 (or (> x_year 2023) $x889))))
(assert
 (let ((?x425 (+ (mod (- (+ x_month (+ (* 0 12) 1)) 1) 12) 1)))
 (let ((?x1046 (ite (or (= ?x425 4) (= ?x425 6) (= ?x425 9) (= ?x425 11)) 30 31)))
 (let ((?x451 (+ 0 (div (- (+ x_month (+ (* 0 12) 1)) 1) 12))))
 (let ((?x738 (+ x_year ?x451)))
 (let (($x1023 (or (and (= (mod ?x738 4) 0) (and (distinct (mod ?x738 100) 0) true)) (= (mod ?x738 400) 0))))
 (let ((?x1026 (ite (= ?x425 2) (ite $x1023 29 28) ?x1046)))
 (let ((?x887 (ite (< x_day 1) 1 (ite (> x_day ?x1026) ?x1026 x_day))))
 (let ((?x1022 (ite (< ?x887 1) 1 (ite (> ?x887 ?x1026) ?x1026 ?x887))))
 (let ((?x869 (ite (= 2 ?x425) (ite $x1023 31 31) (ite (= 1 ?x425) (ite $x1023 0 0) 0))))
 (let ((?x1134 (ite (= 4 ?x425) (ite $x1023 91 90) (ite (= 3 ?x425) (ite $x1023 60 59) ?x869))))
 (let ((?x1139 (ite (= 6 ?x425) (ite $x1023 152 151) (ite (= 5 ?x425) (ite $x1023 121 120) ?x1134))))
 (let ((?x962 (ite (= 8 ?x425) (ite $x1023 213 212) (ite (= 7 ?x425) (ite $x1023 182 181) ?x1139))))
 (let ((?x1777 (ite (= 10 ?x425) (ite $x1023 274 273) (ite (= 9 ?x425) (ite $x1023 244 243) ?x962))))
 (let ((?x1835 (ite (= 12 ?x425) (ite $x1023 335 334) (ite (= 11 ?x425) (ite $x1023 305 304) ?x1777))))
 (let ((?x666 (- (+ (* 365 (- ?x738 1)) (div (- ?x738 1) 4)) (div (- ?x738 1) 100))))
 (let ((?x906 (- (+ (+ (+ ?x666 (div (- ?x738 1) 400)) ?x1835) (- ?x1022 1)) 730179)))
 (let ((?x926 (+ (+ ?x906 0) 730179)))
 (let ((?x426 (mod ?x926 146097)))
 (let ((?x916 (div ?x426 36524)))
 (let ((?x566 (ite (<= 4 ?x916) 3 ?x916)))
 (let ((?x775 (- ?x426 (* ?x566 36524))))
 (let ((?x997 (mod ?x775 1461)))
 (let ((?x583 (div ?x997 365)))
 (let ((?x969 (ite (<= 4 ?x583) 3 ?x583)))
 (let ((?x720 (+ (+ (* (div ?x926 146097) 400) (* ?x566 100)) (* (div ?x775 1461) 4))))
 (let ((?x893 (+ (+ ?x720 ?x969) 1)))
 (let (($x876 (or (and (= (mod ?x893 4) 0) (and (distinct (mod ?x893 100) 0) true)) (= (mod ?x893 400) 0))))
 (let ((?x588 (- ?x997 (* ?x969 365))))
 (let ((?x557 (ite $x876 31 31)))
 (let (($x1087 (>= ?x588 ?x557)))
 (let ((?x2064 (ite $x1087 (+ (- ?x588 ?x557) 1) (+ (- ?x588 (ite $x876 0 0)) 1))))
 (let ((?x598 (ite $x876 60 59)))
 (let (($x836 (>= ?x588 ?x598)))
 (let ((?x1042 (ite $x876 91 90)))
 (let (($x963 (>= ?x588 ?x1042)))
 (let ((?x1135 (ite $x963 (+ (- ?x588 ?x1042) 1) (ite $x836 (+ (- ?x588 ?x598) 1) ?x2064))))
 (let ((?x1099 (ite $x876 121 120)))
 (let (($x810 (>= ?x588 ?x1099)))
 (let ((?x586 (ite $x876 152 151)))
 (let (($x930 (>= ?x588 ?x586)))
 (let ((?x403 (ite $x930 (+ (- ?x588 ?x586) 1) (ite $x810 (+ (- ?x588 ?x1099) 1) ?x1135))))
 (let ((?x1088 (ite $x876 182 181)))
 (let (($x888 (>= ?x588 ?x1088)))
 (let ((?x992 (ite $x876 213 212)))
 (let (($x2496 (>= ?x588 ?x992)))
 (let ((?x735 (ite $x2496 (+ (- ?x588 ?x992) 1) (ite $x888 (+ (- ?x588 ?x1088) 1) ?x403))))
 (let ((?x1131 (ite $x876 244 243)))
 (let (($x3258 (>= ?x588 ?x1131)))
 (let ((?x773 (ite $x876 274 273)))
 (let (($x1142 (>= ?x588 ?x773)))
 (let ((?x422 (ite $x1142 (+ (- ?x588 ?x773) 1) (ite $x3258 (+ (- ?x588 ?x1131) 1) ?x735))))
 (let ((?x769 (ite $x876 305 304)))
 (let (($x1071 (>= ?x588 ?x769)))
 (let ((?x639 (ite $x876 335 334)))
 (let (($x453 (>= ?x588 ?x639)))
 (let ((?x493 (ite $x453 (+ (- ?x588 ?x639) 1) (ite $x1071 (+ (- ?x588 ?x769) 1) ?x422))))
 (let (($x670 (= 0 0)))
 (let ((?x482 (ite $x670 ?x1022 ?x493)))
 (let ((?x2063 (ite $x810 5 (ite $x963 4 (ite $x836 3 (ite $x1087 2 1))))))
 (let ((?x966 (ite $x3258 9 (ite $x2496 8 (ite $x888 7 (ite $x930 6 ?x2063))))))
 (let ((?x804 (+ (ite $x670 ?x425 (ite $x453 12 (ite $x1071 11 (ite $x1142 10 ?x966)))) (+ (* 0 12) 0))))
 (let ((?x918 (- ?x804 1)))
 (let ((?x1000 (+ (mod ?x918 12) 1)))
 (let ((?x837 (ite (or (= ?x1000 4) (= ?x1000 6) (= ?x1000 9) (= ?x1000 11)) 30 31)))
 (let (($x436 (= (mod (+ (ite $x670 ?x738 ?x893) (+ 0 (div ?x918 12))) 400) 0)))
 (let (($x877 (and (distinct (mod (+ (ite $x670 ?x738 ?x893) (+ 0 (div ?x918 12))) 100) 0) true)))
 (let (($x895 (= (mod (+ (ite $x670 ?x738 ?x893) (+ 0 (div ?x918 12))) 4) 0)))
 (let (($x964 (or (and $x895 $x877) $x436)))
 (let ((?x497 (ite (= ?x1000 2) (ite $x964 29 28) ?x837)))
 (let ((?x3501 (ite (< ?x482 1) 1 (ite (> ?x482 ?x497) ?x497 ?x482))))
 (let ((?x849 (ite (< ?x3501 1) 1 (ite (> ?x3501 ?x497) ?x497 ?x3501))))
 (let ((?x498 (ite (= 2 ?x1000) (ite $x964 31 31) (ite (= 1 ?x1000) (ite $x964 0 0) 0))))
 (let ((?x3531 (ite (= 4 ?x1000) (ite $x964 91 90) (ite (= 3 ?x1000) (ite $x964 60 59) ?x498))))
 (let ((?x3269 (ite (= 6 ?x1000) (ite $x964 152 151) (ite (= 5 ?x1000) (ite $x964 121 120) ?x3531))))
 (let ((?x838 (ite (= 8 ?x1000) (ite $x964 213 212) (ite (= 7 ?x1000) (ite $x964 182 181) ?x3269))))
 (let ((?x1050 (ite (= 10 ?x1000) (ite $x964 274 273) (ite (= 9 ?x1000) (ite $x964 244 243) ?x838))))
 (let ((?x610 (ite (= 12 ?x1000) (ite $x964 335 334) (ite (= 11 ?x1000) (ite $x964 305 304) ?x1050))))
 (let ((?x999 (+ (ite $x670 ?x738 ?x893) (+ 0 (div ?x918 12)))))
 (let ((?x523 (- ?x999 1)))
 (let ((?x428 (+ (- (+ (* 365 ?x523) (div ?x523 4)) (div ?x523 100)) (div ?x523 400))))
 (let ((?x1011 (+ (+ (- (+ (+ ?x428 ?x610) (- ?x849 1)) 730179) 15) 730179)))
 (let ((?x988 (mod ?x1011 146097)))
 (let ((?x573 (div ?x988 36524)))
 (let ((?x757 (ite (<= 4 ?x573) 3 ?x573)))
 (let ((?x607 (- ?x988 (* ?x757 36524))))
 (let ((?x856 (mod ?x607 1461)))
 (let ((?x1017 (div ?x856 365)))
 (let ((?x585 (ite (<= 4 ?x1017) 3 ?x1017)))
 (let ((?x822 (+ (+ (* (div ?x1011 146097) 400) (* ?x757 100)) (* (div ?x607 1461) 4))))
 (let ((?x576 (+ (+ ?x822 ?x585) 1)))
 (let (($x728 (or (and (= (mod ?x576 4) 0) (and (distinct (mod ?x576 100) 0) true)) (= (mod ?x576 400) 0))))
 (let ((?x501 (- ?x856 (* ?x585 365))))
 (let ((?x807 (ite $x728 31 31)))
 (let (($x712 (>= ?x501 ?x807)))
 (let ((?x1717 (ite $x712 (+ (- ?x501 ?x807) 1) (+ (- ?x501 (ite $x728 0 0)) 1))))
 (let ((?x843 (ite $x728 60 59)))
 (let (($x1157 (>= ?x501 ?x843)))
 (let ((?x427 (ite $x728 91 90)))
 (let (($x1119 (>= ?x501 ?x427)))
 (let ((?x784 (ite $x1119 (+ (- ?x501 ?x427) 1) (ite $x1157 (+ (- ?x501 ?x843) 1) ?x1717))))
 (let ((?x854 (ite $x728 121 120)))
 (let (($x3031 (>= ?x501 ?x854)))
 (let ((?x417 (ite $x728 152 151)))
 (let (($x3022 (>= ?x501 ?x417)))
 (let ((?x935 (ite $x3022 (+ (- ?x501 ?x417) 1) (ite $x3031 (+ (- ?x501 ?x854) 1) ?x784))))
 (let ((?x654 (ite $x728 182 181)))
 (let (($x2983 (>= ?x501 ?x654)))
 (let ((?x864 (ite $x728 213 212)))
 (let (($x1635 (>= ?x501 ?x864)))
 (let ((?x3209 (ite $x1635 (+ (- ?x501 ?x864) 1) (ite $x2983 (+ (- ?x501 ?x654) 1) ?x935))))
 (let ((?x739 (ite $x728 244 243)))
 (let (($x534 (>= ?x501 ?x739)))
 (let ((?x734 (ite $x728 274 273)))
 (let (($x792 (>= ?x501 ?x734)))
 (let ((?x1080 (ite $x792 (+ (- ?x501 ?x734) 1) (ite $x534 (+ (- ?x501 ?x739) 1) ?x3209))))
 (let ((?x927 (ite $x728 305 304)))
 (let (($x512 (>= ?x501 ?x927)))
 (let ((?x717 (ite $x728 335 334)))
 (let (($x1533 (>= ?x501 ?x717)))
 (let ((?x1060 (ite $x1533 (+ (- ?x501 ?x717) 1) (ite $x512 (+ (- ?x501 ?x927) 1) ?x1080))))
 (let (($x833 (= 0 15)))
 (let ((?x3538 (ite $x3031 5 (ite $x1119 4 (ite $x1157 3 (ite $x712 2 1))))))
 (let ((?x1049 (ite $x534 9 (ite $x1635 8 (ite $x2983 7 (ite $x3022 6 ?x3538))))))
 (let ((?x1769 (ite $x1533 12 (ite $x512 11 (ite $x792 10 ?x1049)))))
 (and (= (ite $x833 ?x999 ?x576) y_year) (= (ite $x833 ?x1000 ?x1769) y_month) (= (ite $x833 ?x849 ?x1060) y_day)))))))))))))))))))))))))))))))))))))))))))))))))))))))))))))))))))))))))))))))))))))))))))))))))))))))))))))))))))))))))))))))
(assert
 (let (($x976 (= y_year 2023)))
(let (($x2645 (and $x976 (or (> y_month 6) (and (= y_month 6) (>= y_day 1))))))
(or (> y_year 2023) $x2645))))
(check-sat)
